nNurses = 160;
nHours = 34;
minHours = 8;
maxHours = 11;
maxConsec = 8;
maxPresence = 31;
demand = [21, 20, 17, 19, 21, 24, 27, 24, 26, 24, 22, 21, 22, 17, 16, 13, 10, 14, 16, 21, 22, 23, 26, 24, 29, 34, 29, 34, 37, 38, 39, 39, 38, 33];
